p cnf 71 227
a 9 69 0
e 1 2 3 4 5 6 7 8 10 11 12 13 14 15 16 17 18 19 20 21 22 23 24 25 26 27 28 29 30 31 32 33 34 35 36 37 38 39 40 41 42 43 44 45 46 47 48 49 50 51 52 53 54 55 56 57 58 59 60 61 62 63 64 65 66 67 68 70 71 0
-1 -3 0
1 -3 0
-4 2 0
-4 3 0
-2 -3 4 0
4 -2 -5 0
-4 2 -5 0
4 2 5 0
-4 -2 5 0
6 -7 -8 0
-6 7 -8 0
6 7 8 0
-6 -7 8 0
-5 -8 -9 0
5 8 -9 0
-5 8 9 0
5 -8 9 0
-10 -1 0
-10 -9 0
1 9 10 0
11 -6 0
11 2 0
6 -2 -11 0
-13 11 0
-13 12 0
-11 -12 13 0
14 13 0
14 -1 0
-13 1 -14 0
-15 10 0
-15 14 0
-10 -14 15 0
16 -6 -17 0
-16 6 -17 0
16 6 17 0
-16 -6 17 0
19 -17 0
19 18 0
17 -18 -19 0
-20 7 0
-20 11 0
-7 -11 20 0
-20 21 0
20 21 0
-22 1 0
-22 -21 0
-1 21 22 0
23 19 0
23 -22 0
-19 22 -23 0
-25 24 0
-25 3 0
-24 -3 25 0
-26 -23 0
-26 25 0
23 -25 26 0
27 -16 0
27 -6 0
16 6 -27 0
-28 4 0
-28 27 0
-4 -27 28 0
29 -26 0
29 -28 0
26 28 -29 0
30 7 0
30 6 0
-7 -6 -30 0
-31 30 0
-31 11 0
-30 -11 31 0
-31 12 -32 0
31 -12 -32 0
-31 -12 32 0
31 12 32 0
29 -32 -33 0
-29 32 -33 0
29 32 33 0
-29 -32 33 0
-8 22 -34 0
8 -22 -34 0
-8 -22 34 0
8 22 34 0
35 16 0
35 -20 0
-16 20 -35 0
-35 16 -36 0
35 -16 -36 0
-35 -16 36 0
35 16 36 0
-6 36 -37 0
6 -36 -37 0
-6 -36 37 0
6 36 37 0
-37 3 -38 0
37 -3 -38 0
-37 -3 38 0
37 3 38 0
-34 -38 -39 0
34 38 -39 0
-34 38 39 0
34 -38 39 0
-40 33 0
-40 -39 0
-33 39 40 0
42 20 0
42 41 0
-20 -41 -42 0
43 42 0
43 -20 0
-42 20 -43 0
-12 -43 -44 0
12 43 -44 0
-12 43 44 0
12 -43 44 0
45 -42 0
45 35 0
42 -35 -45 0
11 45 -46 0
-11 -45 -46 0
11 -45 46 0
-11 45 46 0
-47 44 0
-47 46 0
-44 -46 47 0
-48 40 0
-48 47 0
-40 -47 48 0
-50 -49 0
-50 2 0
49 -2 50 0
51 -45 0
51 41 0
45 -41 -51 0
52 36 0
52 51 0
-36 -51 -52 0
-41 -52 -53 0
41 52 -53 0
-41 52 53 0
41 -52 53 0
-54 53 0
-54 -51 0
-53 51 54 0
-55 4 0
-55 -18 0
-4 18 55 0
-56 18 0
-56 2 0
-18 -2 56 0
56 20 -57 0
-56 -20 -57 0
56 -20 57 0
-56 20 57 0
55 57 -58 0
-55 -57 -58 0
55 -57 58 0
-55 57 58 0
54 -58 -59 0
-54 58 -59 0
54 58 59 0
-54 -58 59 0
-60 -50 0
-60 59 0
50 -59 60 0
-61 30 0
-61 -49 0
-30 49 61 0
62 -8 0
62 61 0
8 -61 -62 0
49 -45 -63 0
-49 45 -63 0
49 45 63 0
-49 -45 63 0
-62 63 -64 0
62 -63 -64 0
-62 -63 64 0
62 63 64 0
60 -64 -65 0
-60 64 -65 0
60 64 65 0
-60 -64 65 0
66 48 0
66 65 0
-48 -65 -66 0
30 2 -67 0
-30 -2 -67 0
30 -2 67 0
-30 2 67 0
45 16 -68 0
-45 -16 -68 0
45 -16 68 0
-45 16 68 0
67 68 -69 0
-67 -68 -69 0
67 -68 69 0
-67 68 69 0
70 -66 0
70 -69 0
66 69 -70 0
-15 -70 -71 0
15 70 -71 0
-15 70 71 0
15 -70 71 0
12 -56 -29 59 0
-45 25 -6 -40 50 0
50 53 42 49 0
15 21 22 -19 -16 5 6 3 0
44 -19 7 -39 -56 -41 -21 4 0
21 69 56 52 0
56 -30 -54 -29 -20 0
-40 -45 67 -53 50 -47 24 -52 0
60 -15 -35 0
30 -18 -50 37 62 -6 -25 0
43 -20 71 9 24 0
-26 -16 27 -47 33 -58 59 71 0
-22 -57 31 -43 18 6 -13 0
44 -59 -29 -4 0
-42 -50 24 0
-41 -6 70 -66 -9 -18 -4 0
48 -53 10 -29 24 0
-67 -53 -9 23 27 0
-10 19 29 21 31 57 0
27 -59 -36 -11 -29 68 19 0
-31 20 46 -48 57 25 0
71 0
